
--- Job picnicdual.gms Start 10/16/23 18:10:57 44.3.0 8b8fb1cb WEX-WEI x86 64bit/MS Windows
--- Applying:
    C:\GAMS\44\gmsprmNT.txt
--- GAMS Parameters defined
    Input C:\Users\Rocke\OneDrive\Documents\isye524\lectures\randomex\picnicdual.gms
    PageSize 0
    ScrDir C:\Users\Rocke\OneDrive\Documents\isye524\lectures\randomex\225a\
    SysDir C:\GAMS\44\
    LogOption 3
    ErrMsg 1
    ErrorLog 99
    IDE 1
    LstTitleLeftAligned 1
Licensee: Introduction to Optimization (CS/ISyE/ECE 524) G230906|0002AS-GEN
          UW-Madison, CS Dept., Fall 2023, Prof. Ferris              DCE850
          C:\GAMS\44\gamslice.txt
          License Admin: Michael C. Ferris, ferris@cs.wisc.edu             
          Course license for use within the course and related course work
Processor information: 1 socket(s), 4 core(s), and 8 thread(s) available
GAMS 44.3.0   Copyright (C) 1987-2023 GAMS Development. All rights reserved
--- Starting compilation
--- picnicdual.gms(59) 3 Mb
--- $echo File C:\Users\Rocke\OneDrive\Documents\isye524\lectures\randomex\cplex.opt
--- picnicdual.gms(86) 3 Mb
--- Starting execution: elapsed 0:00:00.012
--- picnicdual.gms(64) 4 Mb
--- Generating LP model maxflow
--- picnicdual.gms(66) 4 Mb
---   9 rows  25 columns  45 non-zeroes
--- Range statistics (absolute non-zero finite values)
--- RHS       [min, max] : [        NA,        NA] - Zero values observed as well
--- Bound     [min, max] : [ 2.000E+00, 4.000E+00] - Zero values observed as well
--- Matrix    [min, max] : [ 1.000E+00, 1.000E+00]
--- Executing CPLEX (Solvelink=2): elapsed 0:00:00.024

IBM ILOG CPLEX   44.3.0 8b8fb1cb Sep 1, 2023           WEI x86 64bit/MS Window

--- GAMS/CPLEX licensed for continuous and discrete problems.

Reading parameter(s) from "C:\Users\Rocke\OneDrive\Documents\isye524\lectures\randomex\cplex.opt"
>>  lpmethod 3
>>  netfind 2
>>  preind 0
Finished reading from "C:\Users\Rocke\OneDrive\Documents\isye524\lectures\randomex\cplex.opt"

--- GMO setup time: 0.00s
--- GMO memory 0.50 Mb (peak 0.50 Mb)
--- Dictionary memory 0.00 Mb
--- Cplex 22.1.1.0 link memory 0.00 Mb (peak 0.00 Mb)
--- Starting Cplex

Version identifier: 22.1.1.0 | 2022-11-27 | 9160aff4d
CPXPARAM_Advance                                 0
CPXPARAM_Simplex_Display                         2
CPXPARAM_Preprocessing_Presolve                  0
CPXPARAM_LPMethod                                3
CPXPARAM_Threads                                 1
CPXPARAM_MIP_Display                             4
CPXPARAM_MIP_Pool_Capacity                       0
CPXPARAM_MIP_Tolerances_AbsMIPGap                0
Extracted network with 9 nodes and 24 arcs.
Extraction time = 0.00 sec. (0.00 ticks)

Iteration log . . .
Iteration:     0   Infeasibility     =            16.000000 (-0)
Iteration:    10   Infeasibility     =             8.000000 (8)

Network - Optimal:  Objective =    1.4000000000e+01
Network time = 0.00 sec. (0.00 ticks)  Iterations = 19 (19)

--- LP status (1): optimal.
--- Cplex Time: 0.02sec (det. 0.01 ticks)


Optimal solution found
Objective:           14.000000

--- Reading solution for model maxflow
--- Executing after solve: elapsed 0:00:00.123
--- picnicdual.gms(85) 4 Mb
--- Generating LP model dualflow
--- picnicdual.gms(86) 4 Mb
---   25 rows  33 columns  89 non-zeroes
--- Range statistics (absolute non-zero finite values)
--- RHS       [min, max] : [ 1.000E+00, 1.000E+00] - Zero values observed as well
--- Bound     [min, max] : [        NA,        NA] - Zero values observed as well
--- Matrix    [min, max] : [ 1.000E+00, 4.000E+00]
--- Executing CPLEX (Solvelink=2): elapsed 0:00:00.132

IBM ILOG CPLEX   44.3.0 8b8fb1cb Sep 1, 2023           WEI x86 64bit/MS Window

--- GAMS/CPLEX licensed for continuous and discrete problems.
--- GMO setup time: 0.00s
--- GMO memory 0.50 Mb (peak 0.50 Mb)
--- Dictionary memory 0.00 Mb
--- Cplex 22.1.1.0 link memory 0.00 Mb (peak 0.00 Mb)
--- Starting Cplex

Version identifier: 22.1.1.0 | 2022-11-27 | 9160aff4d
CPXPARAM_Advance                                 0
CPXPARAM_Simplex_Display                         2
CPXPARAM_Threads                                 1
CPXPARAM_MIP_Display                             4
CPXPARAM_MIP_Pool_Capacity                       0
CPXPARAM_MIP_Tolerances_AbsMIPGap                0
Tried aggregator 1 time.
LP Presolve eliminated 0 rows and 1 columns.
Aggregator did 8 substitutions.
Reduced LP has 16 rows, 24 columns, and 48 nonzeros.
Presolve time = 0.00 sec. (0.03 ticks)
Symmetry aggregator did 33 additional substitutions.

Iteration      Dual Objective            In Variable           Out Variable
     1               8.000000             pi(car4,t)dualcons(capulet, slack
     2              14.000000             pi(car3,t)dualcons(capulet, slack

Dual crossover.
  Dual:  Fixing 12 variables.
       11 DMoves:  Infeasibility  0.00000000e+00  Objective  1.40000000e+01
        0 DMoves:  Infeasibility  0.00000000e+00  Objective  1.40000000e+01
  Dual:  Pushed 5, exchanged 7.
  Primal:  Fixed no variables.

--- LP status (1): optimal.
--- Cplex Time: 0.00sec (det. 0.06 ticks)


Optimal solution found
Objective:           14.000000

--- Reading solution for model dualflow
*** Status: Normal completion
--- Job picnicdual.gms Stop 10/16/23 18:10:58 elapsed 0:00:00.227
